c description: Random 3-CNF over 22 variables and 94 clauses
c generator: CNFgen (0.9.2)
c copyright: (C) 2012-2022 Massimo Lauria <massimo.lauria@uniroma1.it>
c url: https://massimolauria.net/cnfgen
c command line: cnfgen --output CNF_4.28/22_bit_94_166.cnf randkcnf 3 22 94
c
p cnf 22 94
5 10 -15 0
-4 -10 18 0
4 -11 -21 0
-11 -12 -15 0
8 13 -14 0
10 14 15 0
-15 21 -22 0
-2 -5 -10 0
-2 -7 -16 0
-5 -6 -17 0
4 11 -20 0
7 10 21 0
4 13 -15 0
1 -14 21 0
-8 10 13 0
2 -17 -22 0
-1 -4 8 0
5 8 21 0
6 9 11 0
13 15 -20 0
-9 -11 -18 0
9 12 14 0
6 7 -22 0
-4 -10 -16 0
-8 -11 14 0
-1 -7 9 0
-8 14 22 0
4 14 -16 0
-4 6 17 0
14 17 18 0
6 8 12 0
-7 -9 21 0
5 -16 17 0
-11 17 -18 0
-3 -11 -16 0
14 16 19 0
-11 14 -20 0
1 -3 -8 0
-2 -14 -15 0
-1 3 -17 0
8 -12 20 0
-3 10 -20 0
9 12 17 0
-1 -6 11 0
-5 -14 -21 0
-6 -13 -19 0
-12 13 21 0
-1 9 -18 0
-5 -18 20 0
1 15 -19 0
-1 -2 -21 0
-3 -6 19 0
-4 -9 -11 0
10 -21 -22 0
2 -5 -6 0
-9 10 17 0
4 8 -11 0
1 -3 -18 0
1 14 16 0
1 -12 22 0
20 21 -22 0
-18 -21 22 0
6 -14 16 0
-1 5 -19 0
-15 17 22 0
5 -8 -20 0
-2 12 16 0
-2 7 -8 0
-4 -16 20 0
1 4 10 0
-3 5 16 0
-7 -12 15 0
2 -5 22 0
2 7 -22 0
-4 8 16 0
-10 -15 -22 0
6 18 21 0
-9 13 14 0
2 -3 7 0
-17 -19 21 0
1 -2 -15 0
7 10 -22 0
-7 13 20 0
-7 8 9 0
-5 14 17 0
-2 -19 20 0
-1 -4 -5 0
1 12 -14 0
2 -8 -17 0
7 -17 -21 0
2 -4 -7 0
-8 -17 -19 0
-1 10 17 0
3 -5 -9 0
